%pal nprocs 32 end
%maxcore 3000

!DLPNO-CCSD(T) RIJCOSX DEF2-SVP autoaux CPCM(WATER) TightSCF

%cpcm
epsilon 4.0
end

%base "ab_initio-FRA-MIA-model4"
* xyz 0 1
N          47.58100000   39.99300000   28.42800000 
H          46.76400000   40.46300000   28.76200000 
C          47.62100000   38.51100000   28.40100000 
H          48.25800000   38.09400000   29.18200000 
C          46.20500000   37.83900000   28.58700000 
H          45.60600000   38.16400000   27.73700000 
H          46.32600000   36.75500000   28.59900000 
O          45.59600000   38.26300000   29.76400000 
H          45.41300000   39.18900000   29.58600000 
C          48.21100000   38.01700000   27.08400000 
O          47.67600000   38.34400000   25.99300000 
N          49.01200000   34.94100000   24.58700000 
H          48.14100000   35.40100000   24.41500000 
C          48.91400000   33.48100000   24.14500000 
H          48.99900000   32.84700000   25.02700000 
C          47.55400000   33.21400000   23.42100000 
H          47.17100000   32.21500000   23.62400000 
H          46.79700000   33.91700000   23.77000000 
C          47.63000000   33.35500000   21.88700000 
H          47.92100000   34.35800000   21.57400000 
H          48.27300000   32.56200000   21.50700000 
C          46.27100000   33.01300000   21.23300000 
H          45.59700000   33.76300000   21.64900000 
H          46.26600000   33.17700000   20.15500000 
N          45.77600000   31.66800000   21.46600000 
H          46.40900000   30.90600000   21.26900000 
C          44.60900000   31.29100000   21.93000000 
N          43.74100000   32.07900000   22.61200000 
H          43.89400000   33.06400000   22.77900000 
H          42.96900000   31.56400000   23.00900000 
N          44.24200000   30.05500000   21.77000000 
H          44.81900000   29.55700000   21.10600000 
H          43.31500000   29.80300000   22.08200000 
C          50.17200000   33.02600000   23.24400000 
O          50.47100000   31.80700000   23.15000000 
N          35.78100000   22.25200000   26.63900000 
H          36.74200000   21.97600000   26.59800000 
C          35.42800000   23.57900000   26.10400000 
H          34.86300000   24.00600000   26.93300000 
C          36.66500000   24.47600000   25.85600000 
H          37.40800000   23.91900000   25.28600000 
H          36.41700000   25.36800000   25.28100000 
C          37.43200000   24.91800000   27.12600000 
H          37.67100000   24.02400000   27.70200000 
H          38.39100000   25.24300000   26.72400000 
C          36.75400000   26.15600000   27.80600000 
O          37.50600000   27.04700000   28.28200000 
O          35.54300000   26.11400000   28.03500000 
C          34.53900000   23.46700000   24.85000000 
O          33.68300000   24.35600000   24.60400000 
N          31.31100000   25.80600000   24.72900000 
H          32.09400000   25.19200000   24.63200000 
C          30.91900000   26.62600000   23.64800000 
H          30.75800000   27.63800000   24.02100000 
C          31.98900000   26.76500000   22.56800000 
H          32.42800000   25.77700000   22.43300000 
H          31.52600000   26.94300000   21.59800000 
C          33.08100000   27.80400000   22.88400000 
C          34.33100000   27.32900000   23.27700000 
H          34.41000000   26.27600000   23.50500000 
C          35.40800000   28.21600000   23.49100000 
H          36.37700000   27.84500000   23.79200000 
C          35.11100000   29.60100000   23.46400000 
O          36.09100000   30.52400000   23.73000000 
H          36.73000000   30.20900000   24.37400000 
C          33.85900000   30.08700000   22.96500000 
H          33.62800000   31.13800000   22.87500000 
C          32.86200000   29.19000000   22.74700000 
H          31.92500000   29.57400000   22.37300000 
C          29.54900000   26.25300000   23.01200000 
O          28.77300000   27.16000000   22.61300000 
N          43.14400000   25.66300000   22.58000000 
H          43.56400000   24.77200000   22.40500000 
C          43.88800000   26.35300000   23.61400000 
H          43.72800000   27.42100000   23.46800000 
C          43.33900000   25.91200000   24.95900000 
H          43.70700000   24.90100000   25.13500000 
H          43.84800000   26.59800000   25.63600000 
C          41.83200000   25.89200000   25.40200000 
H          41.20900000   25.17700000   24.86400000 
H          41.70400000   25.65600000   26.45800000 
C          41.10800000   27.25100000   25.16500000 
H          41.71400000   28.12100000   25.42000000 
H          40.98500000   27.34800000   24.08600000 
C          39.76400000   27.36900000   25.85300000 
H          38.97700000   27.91800000   25.33700000 
H          39.33100000   26.36900000   25.88400000 
N          39.88000000   27.77900000   27.26600000 
H          40.79400000   27.63900000   27.67200000 
H          39.57800000   28.74100000   27.31500000 
H          39.26800000   27.26400000   27.88300000 
C          45.40200000   26.05900000   23.44600000 
O          46.07900000   25.66400000   24.43000000 
N          40.09900000   30.20900000   32.94300000 
H          39.76200000   31.11900000   32.70100000 
C          39.12900000   29.54300000   33.76200000 
H          39.59300000   28.80400000   34.41400000 
C          38.36300000   30.66500000   34.57600000 
H          37.49500000   30.20500000   35.04800000 
C          39.32400000   31.29500000   35.60400000 
H          40.06400000   31.88100000   35.06100000 
H          38.81500000   31.88000000   36.37000000 
H          39.79000000   30.44400000   36.10100000 
O          37.84700000   31.62400000   33.75900000 
H          37.25000000   31.09600000   33.22400000 
C          38.17700000   28.82700000   32.75400000 
O          36.99900000   29.24100000   32.59900000 
N          36.26300000   38.46800000   30.43200000 
H          36.40600000   37.48000000   30.37200000 
C          35.85100000   38.98300000   29.12100000 
H          36.38400000   38.38600000   28.38200000 
C          34.31600000   38.57300000   29.14200000 
H          33.84500000   39.19300000   29.90400000 
H          33.86100000   38.85000000   28.19100000 
H          34.21200000   37.51300000   29.37500000 
C          36.05200000   40.52600000   28.93300000 
O          35.34000000   41.15800000   28.11000000 
N          40.36600000   41.01600000   33.76600000 
H          40.24400000   41.65700000   33.00800000 
C          39.04700000   40.59800000   34.27300000 
H          39.12000000   40.07600000   35.22700000 
C          38.22100000   41.86700000   34.51300000 
H          37.28400000   41.58100000   34.99100000 
H          38.79400000   42.51200000   35.17900000 
O          37.86200000   42.44000000   33.32700000 
H          38.64400000   42.76600000   32.87600000 
C          38.42400000   39.62700000   33.21900000 
O          38.76400000   39.70800000   32.01000000 
C          40.23200000   37.62000000   29.04600000 
O          39.70200000   36.82400000   28.00200000 
C          41.34800000   36.90000000   29.89900000 
N          41.06900000   34.33500000   28.66100000 
C          40.69900000   33.32600000   27.85500000 
O          40.91200000   33.28900000   26.65800000 
N          40.13900000   32.23600000   28.46900000 
C          39.71200000   32.14800000   29.73000000 
C          39.90300000   33.36400000   30.47700000 
O          39.33000000   31.10800000   30.20800000 
C          39.71100000   34.59100000   32.51200000 
N          39.34500000   33.54600000   31.70200000 
C          39.31600000   34.58900000   33.87500000 
C          39.68800000   35.58900000   34.77500000 
C          39.07900000   35.68200000   36.17100000 
C          40.54800000   36.60200000   34.35900000 
C          41.00000000   37.67100000   35.27400000 
C          40.86800000   36.62400000   32.97400000 
C          40.37000000   35.72700000   32.00600000 
C          40.65200000   34.44300000   29.96600000 
N          40.82000000   35.69100000   30.66600000 
H          39.43200000   37.90000000   29.69900000 
H          38.98200000   36.38900000   28.49100000 
H          41.70200000   37.61300000   30.65400000 
H          42.18200000   36.52300000   29.29400000 
H          38.57500000   33.87300000   34.21800000 
H          38.24600000   36.39600000   36.17900000 
H          39.88300000   35.84700000   36.89900000 
H          38.67700000   34.74300000   36.56900000 
H          41.56700000   38.45500000   34.75700000 
H          40.11100000   38.14700000   35.70500000 
H          41.54000000   37.22400000   36.11800000 
H          41.49700000   37.44500000   32.64300000 
H          41.35800000   35.17700000   28.17700000 
H          39.87600000   31.43200000   27.91200000 
H          38.67400000   32.83400000   31.95600000 
N          36.87500000   29.69700000   29.29900000 
C          36.26200000   29.83000000   27.89300000 
C          37.47800000   29.81900000   26.95300000 
O          37.38100000   29.62300000   25.72500000 
C          35.33000000   31.06000000   27.64000000 
C          37.31500000   34.29700000   27.66100000 
C          35.66300000   32.84400000   29.47900000 
C          36.34300000   34.00800000   29.86400000 
C          36.60500000   33.16300000   27.20100000 
O          38.54700000   30.18800000   27.40700000 
C          35.82400000   32.42000000   28.14500000 
C          37.19600000   34.76100000   28.96700000 
H          37.42700000   28.82900000   29.24300000 
H          36.12800000   29.59900000   30.00000000 
H          35.69300000   28.91700000   27.71000000 
H          34.40200000   30.83700000   28.18000000 
H          34.92900000   31.12200000   26.62100000 
H          37.36300000   30.55000000   29.60900000 
H          37.86600000   34.82200000   26.88700000 
H          36.73100000   32.87400000   26.16200000 
H          35.14500000   32.20600000   30.19000000 
O          37.76300000   35.81000000   29.30600000 
I          35.84800000   34.80100000   31.81100000 
H          40.65000000   38.50700000   28.61800000 
H          49.08000000   37.39200000   27.08800000 
H          48.36800000   40.52100000   28.10800000 
H          49.22200000   34.98000000   25.56400000 
H          50.75300000   33.76100000   22.72600000 
H          43.15600000   26.20700000   21.74100000 
H          45.87000000   26.19200000   22.49300000 
H          35.10100000   21.69100000   27.13100000 
H          34.65000000   22.63400000   24.18800000 
H          30.80500000   25.83900000   25.59100000 
H          29.26700000   25.22600000   22.91400000 
H          38.52600000   27.98400000   32.19500000 
H          40.95800000   30.29500000   33.44700000 
H          35.54900000   38.66100000   31.10500000 
H          36.79500000   41.04200000   29.50400000 
H          37.70800000   38.89300000   33.52500000 
H          40.87900000   41.46100000   34.50000000 
*
