%chk=reface-opt.chk
#p b3lyp/def2tzvp nosymm pop=nboread scf=xqc geom=connectivity empiricaldispersion=gd3

Obtaining Output Files for Plotting NBOs

-1 1
 C                 51.59600471   44.48100222   36.80900063
 O                 50.67600265   45.14700227   35.95100258
 C                 50.94100567   44.31000420   38.24100374
 N                 48.21000248   44.87000222   37.37100068
 C                 46.97000440   45.10800524   36.85300367
 O                 46.41800236   44.32500421   36.08300262
 N                 46.46300434   46.28500334   37.22100369
 C                 47.02800339   47.21700238   38.04400174
 C                 48.24200448   46.83800436   38.74900379
 O                 46.39900135   48.21400449   38.21700174
 C                 49.78300456   47.15000542   40.44200390
 N                 48.97900355   47.74200442   39.54800286
 C                 49.97700459   47.68700343   41.68500400
 C                 50.80000264   46.99200436   42.59300205
 C                 51.09700368   47.57500444   43.95700414
 C                 51.33100470   45.71700226   42.28900406
 C                 52.17800475   44.91400421   43.31800414
 C                 51.07700369   45.12100125   41.05200096
 C                 50.34900265   45.89300530   40.08800390
 C                 48.85300454   45.68800330   38.28100076
 N                 50.05300460   45.29300228   38.83200382
 H                 52.49200477   45.06100425   36.89200065
 H                 50.77000363   46.09000333   36.17400259
 H                 51.77800374   44.34000321   38.94900379
 H                 50.50700365   43.30500310   38.31700375
 H                 49.66800259   48.70400251   41.91100201
 H                 50.41900264   48.42500249   44.10700118
 H                 52.13000477   47.94400344   43.96400415
 H                 50.83500268   46.87300436   44.75800222
 H                 52.61900281   45.54900325   44.09700317
 H                 51.53700271   44.19200419   43.84000315
 H                 52.99700571   44.29500118   42.93100311
 H                 51.37200572   44.10400317   40.81000392
 H                 48.86800354   44.18600416   37.01900367
 H                 45.64000227   46.62300436   36.73600264
 N                 44.46200518   49.85300460   37.12600167
 C                 44.68800324   49.64300558   35.66900154
 C                 44.28600221   48.23800247   35.22900251
 O                 43.80200114   47.45500540   36.02400058
 C                 46.06100431   50.33100464   35.14300454
 C                 48.82600354   47.63000443   35.27200155
 C                 48.27900249   50.18500464   36.38600459
 C                 49.46100258   49.55700258   36.77800264
 C                 47.62800144   48.29000445   34.94800453
 O                 44.35300420   47.97700447   34.03900343
 C                 47.34900242   49.60700158   35.46900456
 C                 49.67200455   48.27000346   36.28200359
 H                 43.47200314   49.62300459   37.29400168
 H                 44.63700421   50.80400464   37.47800370
 H                 43.92900415   50.28700260   35.22200256
 H                 46.03100133   51.39000272   35.42900357
 H                 46.03800129   50.30600361   34.04700348
 H                 45.01700126   49.14200152   37.62500269
 H                 47.02000340   47.83600244   34.17100346
 H                 49.13600552   46.65800435   34.90000450
 H                 48.02300246   51.18200267   36.73300464
 O                 50.72600566   47.62100143   36.58300262
 I                 51.06975188   50.76062105   36.16707853
 H                 51.82900272   43.51800515   36.40500163
 H                 49.46983287   49.50549226   37.84672558

 1 2 1.0 3 1.0 22 1.0 59 1.0
 2 23 1.0
 3 21 1.0 24 1.0 25 1.0
 4 5 1.5 20 1.0 34 1.0
 5 6 2.0 7 1.5
 6
 7 8 1.5 35 1.0
 8 9 1.0 10 2.0
 9 12 1.0 20 1.5
 10
 11 12 1.5 13 2.0 19 1.5
 12
 13 14 1.5 26 1.0
 14 15 1.0 16 1.5
 15 27 1.0 28 1.0 29 1.0
 16 17 1.0 18 1.5
 17 30 1.0 31 1.0 32 1.0
 18 19 1.0 33 1.0
 19 21 1.0
 20 21 1.0
 21
 22
 23
 24
 25
 26
 27
 28
 29
 30
 31
 32
 33
 34
 35
 36 37 1.0 48 1.0 49 1.0 53 1.0
 37 38 1.0 40 1.0 50 1.0
 38 39 2.0 45 2.0
 39
 40 46 1.0 51 1.0 52 1.0
 41 44 1.5 47 1.0 55 1.0
 42 43 1.5 46 1.5 56 1.0
 43 47 1.5 58 1.0 60 1.0
 44 46 1.0 54 1.0
 45
 46
 47 57 2.0
 48
 49
 50
 51
 52
 53
 54
 55
 56
 57
 58
 59
 60

$NBO PLOT $END


