%chk=NCI_input.chk
#p b3lyp/def2tzvp nosymm geom=connectivity scf=xqc pop=(ReadRadii)

Single point energy calculation of 5 A environment around EP for NCI analysis

-3 1
 N              26.70300000   34.10600000   26.96600000
 H              26.03757319   33.52163259   27.43045871
 C              28.16200000   33.91900000   27.21500000
 H              28.53600000   34.86300000   27.61300000
 C              28.42100000   32.84400000   28.29500000
 H              27.67700000   33.00700000   29.07500000
 H              28.25000000   31.86600000   27.84500000
 C              29.83400000   32.81000000   28.86600000
 C              30.97600000   33.46100000   28.51900000
 H              31.00700000   34.18000000   27.71400000
 N              31.96700000   33.18500000   29.41800000
 H              32.86800000   33.64200000   29.41300000
 C              31.56800000   32.29300000   30.34500000
 C              32.19900000   31.76000000   31.46800000
 H              33.17600000   32.16000000   31.69800000
 C              31.40500000   31.00900000   32.36500000
 H              31.85500000   30.64200000   33.27600000
 C              30.12000000   30.57100000   32.01500000
 H              29.57300000   30.00700000   32.75600000
 C              29.52500000   30.99600000   30.81700000
 H              28.54600000   30.68200000   30.48600000
 C              30.24300000   31.91100000   30.00200000
 C              28.96900000   33.77200000   25.97700000
 O              29.88894251   34.59266533   25.72444355
 N              40.09900000   30.20900000   32.94300000
 H              39.76243905   31.11901343   32.70092091
 C              39.12900000   29.54300000   33.76200000
 H              39.59300000   28.80400000   34.41400000
 C              38.36300000   30.66500000   34.57600000
 H              37.49500000   30.20500000   35.04800000
 C              39.32400000   31.29500000   35.60400000
 H)             40.06400000   31.88100000   35.06100000
 H)             38.81500000   31.88000000   36.37000000
 H)             39.79000000   30.44400000   36.10100000
 O              37.84700000   31.62400000   33.75900000
 H              37.25000000   31.09600000   33.22400000
 C              38.17700000   28.82700000   32.75400000
 O              36.99877052   29.24082593   32.59877774
 N              37.48100000   38.82100000   33.72600000
 H              37.26180497   38.83391910   34.70159553
 C              36.67100000   38.03200000   32.80800000
 H              37.28800000   37.24100000   32.38300000
 H              35.87500000   37.53500000   33.36400000
 C              35.94300000   38.87800000   31.69500000
 O              35.18900000   39.81100000   32.01000000
 N              36.26300000   38.46800000   30.43200000
 H              36.84100000   37.64400000   30.34500000
 C              35.85100000   38.98300000   29.12100000
 H              36.38400000   38.38600000   28.38200000
 C              34.31600000   38.57300000   29.14200000
 H              33.84500000   39.19300000   29.90400000
 H              33.86100000   38.85000000   28.19100000
 H              34.21200000   37.51300000   29.37500000
 C              36.05200000   40.52600000   28.93300000
 O              35.33962813   41.15767105   28.11014609
 N              30.89300000   37.59600000   34.31400000
 H              30.74823386   37.65713995   33.32642485
 C              31.46200000   36.31800000   34.63600000
 H              30.79500000   35.67700000   35.21200000
 C              31.79100000   35.59900000   33.25000000
 H              32.60700000   36.17900000   32.82000000
 H              32.11400000   34.57000000   33.40500000
 C              30.64100000   35.70400000   32.24300000
 C              29.59800000   34.68200000   32.22600000
 H              29.62500000   33.92600000   32.99600000
 C              28.57200000   34.72100000   31.30300000
 H              27.80100000   33.96600000   31.28500000
 C              28.50800000   35.81300000   30.38300000
 O              27.46500000   35.88800000   29.52600000
 H              27.45600000   36.78800000   29.19100000
 C              29.56000000   36.72800000   30.34800000
 H              29.35000000   37.53600000   29.66300000
 C              30.62400000   36.72200000   31.22700000
 H              31.40900000   37.46300000   31.20900000
 C              32.75100000   36.38800000   35.45900000
 O              33.59400000   37.25900000   35.08600000
 N              32.90200000   35.59100000   36.52700000
 H              32.23900000   34.87700000   36.79300000
 C              34.20900000   35.52000000   37.24000000
 H              33.97100000   34.81500000   38.03700000
 C              35.32900000   34.92500000   36.31300000
 H              35.49000000   35.68100000   35.54600000
 H              36.18900000   34.97400000   36.98100000
 C              35.11100000   33.41300000   35.95400000
 C              35.38000000   32.41700000   36.84900000
 H              35.69900000   32.77600000   37.81700000
 C              35.29600000   31.08300000   36.53300000
 H              35.54900000   30.40300000   37.33300000
 C              34.75800000   30.68700000   35.28800000
 O              34.49700000   29.33700000   35.07600000
 H              34.32600000   29.15000000   34.15000000
 C              34.46700000   31.72800000   34.34300000
 H              33.95500000   31.51300000   33.41600000
 C              34.63400000   33.09600000   34.66300000
 H              34.40400000   33.80900000   33.88500000
 C              34.44600000   36.88400000   38.00400000
 O              35.61380419   37.23894234   38.31030031
 N              37.89400000   38.42400000   39.64200000
 H              36.95520204   38.18398189   39.39491761
 C              38.59000000   39.59500000   38.95100000
 H              39.49000000   39.24700000   38.44500000
 C              37.70900000   40.23800000   37.82100000
 H              36.78700000   40.47500000   38.35200000
 H              38.20000000   41.13700000   37.44700000
 O              37.40300000   39.33200000   36.72400000
 H              36.49400000   39.04200000   36.83100000
 C              38.96900000   40.72200000   39.93900000
 O              40.10180698   41.26552181   39.86897891
 P              43.84900000   41.17000000   29.49300000
 O              45.26700000   40.82400000   29.73600000
 O              43.90700000   42.66300000   29.83400000
 O              43.62500000   41.05800000   28.01500000
 C              41.43700000   40.45300000   30.45600000
 O              42.83700000   40.22700000   30.35100000
 C              40.65400000   40.36500000   29.12100000
 O              41.02500000   41.37500000   28.22600000
 C              40.76400000   38.96100000   28.33400000
 O              42.14600000   38.65800000   27.86800000
 C              40.23200000   37.62000000   29.04600000
 O              39.70200000   36.82400000   28.00200000
 C              41.34800000   36.90000000   29.89900000
 N              41.06900000   34.33500000   28.66100000
 C              40.69900000   33.32600000   27.85500000
 O              40.91200000   33.28900000   26.65800000
 N              40.13900000   32.23600000   28.46900000
 C              39.71200000   32.14800000   29.73000000
 C              39.90300000   33.36400000   30.47700000
 O              39.33000000   31.10800000   30.20800000
 C              39.71100000   34.59100000   32.51200000
 N              39.34500000   33.54600000   31.70200000
 C              39.31600000   34.58900000   33.87500000
 C              39.68800000   35.58900000   34.77500000
 C              39.07900000   35.68200000   36.17100000
 C              40.54800000   36.60200000   34.35900000
 C              41.00000000   37.67100000   35.27400000
 C              40.86800000   36.62400000   32.97400000
 C              40.37000000   35.72700000   32.00600000
 C              40.65200000   34.44300000   29.96600000
 N              40.82000000   35.69100000   30.66600000
 H)             41.02600000   39.64500000   31.07400000
 H)             41.24900000   41.41900000   30.93900000
 H              39.62300000   40.48800000   29.47600000
 H              41.99700000   41.36300000   28.18300000
 H              40.15800000   39.07700000   27.42700000
 H              42.52900000   39.52400000   27.64600000
 H              39.48500000   37.84400000   29.81700000
 H              38.98200000   36.38900000   28.49100000
 H)             41.70200000   37.61300000   30.65400000
 H)             42.18200000   36.52300000   29.29400000
 H              38.57500000   33.87300000   34.21800000
 H)             38.24600000   36.39600000   36.17900000
 H)             39.88300000   35.84700000   36.89900000
 H)             38.67700000   34.74300000   36.56900000
 H)             41.56700000   38.45500000   34.75700000
 H)             40.11100000   38.14700000   35.70500000
 H)             41.54000000   37.22400000   36.11800000
 H              41.49700000   37.44500000   32.64300000
 H              41.35800000   35.17700000   28.17700000
 H              39.87600000   31.43200000   27.91200000
 H              38.67400000   32.83400000   31.95600000
 N              36.87500000   29.69700000   29.29900000
 C              36.26200000   29.83000000   27.89300000
 C              37.47800000   29.81900000   26.95300000
 O              37.38100000   29.62300000   25.72500000
 C              35.33000000   31.06000000   27.64000000
 C              37.31500000   34.29700000   27.66100000
 C              35.66300000   32.84400000   29.47900000
 C              36.34300000   34.00800000   29.86400000
 C              36.60500000   33.16300000   27.20100000
 O              38.54700000   30.18800000   27.40700000
 C              35.82400000   32.42000000   28.14500000
 C              37.19600000   34.76100000   28.96700000
 H              37.42700000   28.82900000   29.24300000
 H              36.12800000   29.59900000   30.00000000
 H              35.69300000   28.91700000   27.71000000
 H              34.40200000   30.83700000   28.18000000
 H              34.92900000   31.12200000   26.62100000
 H              37.36300000   30.55000000   29.60900000
 H              37.86600000   34.82200000   26.88700000
 H              36.73100000   32.87400000   26.16200000
 H              35.14500000   32.20600000   30.19000000
 O              37.76300000   35.81000000   29.30600000
 I              35.84800000   34.80100000   31.81100000
 Bq             35.27500000   35.57100000   33.72900000
 H              38.26811027   41.03989040   40.68237022
 H              38.37713993   37.89738657   40.34146701
 H              33.61340518   37.50518703   38.26053953
 H              30.01765984   37.69968319   34.78625989
 H              38.52604872   27.98417063   32.19480090
 H              40.95842375   30.29463916   33.44704043
 H              36.79493854   41.04227391   29.50431741
 H              38.25632893   39.34979651   33.38068956
 H              28.76822393   32.96828715   25.29977431
 H              26.39045405   34.81571416   26.33463573

 1 2 1.0 3 1.0 194 1.0
 2
 3 4 1.0 5 1.0 23 1.0
 4
 5 7 1.0 6 1.0 8 1.0
 6
 7
 8 9 2.0 22 1.0
 9 10 1.0 11 1.5
 10
 11 12 1.0 13 1.5
 12
 13 14 1.5 22 1.5
 14 16 1.5 15 1.0
 15
 16 17 1.0 18 1.5
 17
 18 19 1.0 20 1.5
 19
 20 21 1.0 22 1.5
 21
 22
 23 24 2.0 193 1.0
 24
 25 26 1.0 27 1.0 190 1.0
 26
 27 28 1.0 29 1.0 37 1.0
 28
 29 35 1.0 30 1.0 31 1.0
 30
 31 34 1.0 32 1.0 33 1.0
 32
 33
 34
 35 36 1.0
 36
 37 38 2.0 189 1.0
 38
 39 40 1.0 41 1.0 192 1.0
 40
 41 42 1.0 43 1.0 44 1.0
 42
 43
 44 45 2.0 46 1.5
 45
 46 47 1.0 48 1.0
 47
 48 50 1.0 49 1.0 54 1.0
 49
 50 53 1.0 52 1.0 51 1.0
 51
 52
 53
 54 55 2.0 191 1.0
 55
 56 58 1.0 57 1.0 188 1.0
 57
 58 60 1.0 59 1.0 75 1.0
 59
 60 61 1.0 62 1.0 63 1.0
 61
 62
 63 64 1.0 73 1.5
 64 66 2.0 65 1.0
 65
 66 67 1.0 68 1.5
 67
 68 69 1.0 71 1.5
 69 70 1.0
 70
 71 72 1.0 73 2.0
 72
 73 74 1.0
 74
 75 76 2.0 77 1.5
 76
 77 78 1.0 79 1.0
 78
 79 80 1.0 96 1.0 81 1.0
 80
 81 82 1.0 83 1.0 84 1.0
 82
 83
 84 94 1.5 85 2.0
 85 87 2.0 86 1.0
 86
 87 89 1.5 88 1.0
 88
 89 92 1.5 90 1.0
 90 91 1.0
 91
 92 93 1.0 94 1.5
 93
 94 95 1.0
 95
 96 97 2.0 187 1.0
 97
 98 99 1.0 100 1.0 186 1.0
 99
 100 101 1.0 102 1.0 107 1.0
 101
 102 103 1.0 104 1.0 105 1.0
 103
 104
 105 106 1.0
 106
 107 108 2.0 185 1.0
 108
 109 112 2.0 110 2.0 111 2.0 114 1.0
 110
 111
 112
 113 115 1.0 140 1.0 114 1.0 141 1.0
 114
 115 116 1.0 117 1.0 142 1.0
 116 143 1.0
 117 119 1.0 144 1.0 118 1.0
 118 145 1.0
 119 120 1.0 146 1.0 121 1.0
 120 147 1.0
 121 139 1.0 148 1.0 149 1.0
 122 123 1.5 138 1.5 158 1.0
 123 124 2.0 125 1.5
 124
 125 159 1.0 126 1.5
 126 128 2.0 127 1.5
 127 130 1.5 138 1.5
 128
 129 130 1.5 131 1.5 137 1.5
 130 160 1.0
 131 150 1.0 132 1.5
 132 134 1.5 133 1.0
 133 151 1.0 152 1.0 153 1.0
 134 136 1.5 135 1.0
 135 155 1.0 156 1.0 154 1.0
 136 137 1.5 157 1.0
 137 139 1.0
 138 139 1.0
 139
 140
 141
 142
 143
 144
 145
 146
 147
 148
 149
 150
 151
 152
 153
 154
 155
 156
 157
 158
 159
 160
 161 162 1.0 173 1.0 174 1.0 178 1.0
 162 163 1.0 165 1.0 175 1.0
 163 164 2.0 170 2.0
 164
 165 176 1.0 177 1.0 171 1.0
 166 169 1.5 179 1.0 172 1.5
 167 171 1.5 168 1.5 181 1.0
 168 172 1.0 183 1.0
 169 171 1.5 180 1.0
 170
 171
 172 182 2.0
 173
 174
 175
 176
 177
 178
 179
 180
 181
 182
 183 184 1.0
 184
 185
 186
 187
 188
 189
 190
 191
 192
 193
 194

I 1.98

