%chk=I-Tyr-EP.chk
#p b3lyp/def2tzvp nosymm iop(6/33=2) pop(chelpg,regular,ReadRadii) scf=xqc  

Electrostatic grid calculation for I-Tyr with Ghost Atom

-1 1
 N                 -8.96100000  154.14000000    2.90100000
 C                 -9.16600000  153.98900000    1.47400000
 C                 -9.55000000  152.56600000    1.17000000
 O                 -9.71900000  152.27400000   -0.05700000
 C                 -7.89500000  154.35700000    0.73000000
 C                 -5.14800000  151.44600000    0.97700000
 C                 -5.71100000  154.29800000    2.14800000
 C                 -4.48200000  153.47600000    2.52000000
 C                 -6.38900000  152.23300000    0.58300000
 O                 -9.67800000  151.76800000    2.08400000
 C                 -6.65100000  153.61900000    1.16300000
 C                 -4.20500000  152.10000000    1.96400000
 H                 -9.08418875  153.25545495    3.35089398
 H                 -9.62340929  154.79448588    3.26550263
 H                 -9.95298407  154.64049644    1.15602444
 H                 -7.71370678  155.38483760    0.96575970
 H                 -8.06290221  154.06245328   -0.28486506
 H                 -8.03397741  154.47423043    3.07105626
 H                 -4.95077789  150.47433634    0.57466535
 H                 -7.08620565  151.80910473   -0.10918284
 H                 -5.89730041  155.27311169    2.54718585
 O                 -3.02840253  151.40064176    2.37802471
 I                 -3.10464107  154.29957074    3.87447909
 Bq                -1.69448788  155.14275031    5.26120768

I 1.98

